c description: Random 3-CNF over 16 variables and 48 clauses
p cnf 16 48
-4 -6 10 0
-1 2 11 0
-2 7 -14 0
6 -14 -15 0
-2 3 11 0
2 -6 -15 0
-2 4 -6 0
10 -11 13 0
8 -11 13 0
1 -5 -8 0
-4 -13 -14 0
5 -10 15 0
-5 -7 -13 0
5 9 -11 0
7 14 15 0
-4 -5 -11 0
2 -7 13 0
2 -9 -10 0
-4 -6 12 0
4 13 15 0
-3 6 7 0
-4 -10 11 0
1 -7 11 0
-1 8 11 0
4 -9 -13 0
-1 -9 -10 0
4 -8 9 0
-6 -10 -12 0
-5 8 10 0
5 11 14 0
-10 -12 -16 0
-4 -11 15 0
9 15 16 0
2 3 7 0
-5 7 15 0
7 -11 15 0
-6 -11 14 0
5 -11 13 0
7 -8 9 0
-12 15 -16 0
5 6 9 0
6 11 16 0
8 11 14 0
-3 8 -16 0
8 -10 -13 0
-5 6 9 0
1 9 11 0
1 10 15 0